CapLotSizing_PM/src/Instancias/TCLSHT/6i18p4m/NBA01.dat
6 18 4
 1
       626
       626
       626
       626
    2
     2
     3
     3
     3
     3
   1.8  48.4   595    17 
  2.4  26.3   100    22 
  4.9  42.1   303    16 
  1.2  30.0   153    16 
  3.6  47.8    93    23 
  3.6  27.8    72    20 
  2.9  19.5   252    24 
  4.2  28.9   274    19 
  2.6  19.1   690    25 
  3.6  16.0   913    18 
  3.0  62.1   731    16 
  1.9  60.9   922    17 
  1.9  51.7   925    21 
  4.8  51.0   667    23 
  4.3  16.0   706    18 
  1.7  54.6   177    22 
  1.9  63.0   848    19 
  4.1  42.5    55    24 
  3.2  50.5   195    25 
  3.3  34.0   439    20 
  3.8  41.0    77    25 
  1.8  53.9   774    18 
  1.9  72.2   795    18 
  4.4  55.9   357    25 
  107    57   130   137   151    89 
   83    81    14    16    18    16 
  172    63   155   113    92    48 
   87    70   154   135    26   160 
  161   148    55   178    53   109 
    3    24    81    69   103    98 
  163    19    93   153    13    17 
  138   164     1   152    36   172 
  130   110   148   179    18    22 
   44     5   122    46   140   169 
  173    68   165    66    32    38 
  146    59     4    69    45    16 
  104    95   154   144   177   168 
   42   156   123    56    78    82 
  142    19   156    41    62    34 
   54    76    22   116   114    33 
  135    50   142   110   178   172 
   19   131   159   100   104   117 
